N = 5;

ACTORES = { Actor1 , Actor2 , Actor3 , Actor4, Actor5 };

M = 5;

Escenas =
[| 1 , 0 , 1 , 1 , 1 , 10
| 1 , 1 , 0 , 0 , 1  , 20
| 0 , 1 , 1 , 0 , 1  , 5
| 1 , 0 , 0 , 1 , 0  , 2
| 1 , 1 , 0 , 1 , 0  , 4|];

Duracion =
[ 2 , 3 , 1 , 2, 5 ];

Disponibilidad = 
[|Actor1, 0
|Actor2, 0
|Actor3, 0
|Actor4, 0
|Actor5, 0|];

E = 5;

Evitar = 
[|Actor3, Actor2
|Actor5, Actor3
|Actor5, Actor1
|Actor4, Actor2
|Actor5, Actor2|];